--- Job proyecto.gms Start 05/07/19 20:03:07 27.1.0 r68fbe1a WEX-WEI x86 64bit/MS Windows
--- GAMS Parameters defined
    Input C:\Users\user\Desktop\Universidad\4to semestre\Optimización\Proyecto\proyecto.gms
    PageSize 0
    ScrDir C:\Users\user\Desktop\Universidad\4to semestre\Optimización\Proyecto\225a\
    SysDir C:\GAMS\win64\27.1\
    LogOption 3
    ErrMsg 1
    ErrorLog 99
    IDE 1
    LstTitleLeftAligned 1
GAMS 27.1.0   Copyright (C) 1987-2019 GAMS Development. All rights reserved
Licensee: GAMS Development Corporation, USA              G871201/0000CA-ANY
          Free Demo, +1 202-342-0180, support@gams.com, www.gams.com DC0000
--- Starting compilation
--- proyecto.gms(31) 2 Mb
--- Starting execution: elapsed 0:00:00.004
--- proyecto.gms(27) 3 Mb
--- Generating LP model ejemplo1
--- proyecto.gms(29) 3 Mb
---   3 rows  4 columns  10 non-zeroes
--- Executing CPLEX: elapsed 0:00:00.016

IBM ILOG CPLEX   27.1.0 r68fbe1a Released Apr 24, 2019 WEI x86 64bit/MS Window
Cplex 12.9.0.0

Reading data...
Starting Cplex...
Space for names approximately 0.00 Mb
Use option 'names no' to turn use of names off
CPXPARAM_Advance                                 0
CPXPARAM_Simplex_Display                         2
CPXPARAM_Threads                                 1
CPXPARAM_Parallel                                1
CPXPARAM_Simplex_Limits_Iterations               2000000000
CPXPARAM_TimeLimit                               1000
CPXPARAM_Tune_TimeLimit                          200
Tried aggregator 1 time.
LP Presolve eliminated 1 rows and 1 columns.
Reduced LP has 2 rows, 3 columns, and 6 nonzeros.
Presolve time = 0.00 sec. (0.00 ticks)

Iteration      Dual Objective            In Variable           Out Variable
     1               3.000000                     x3             des1 slack
     2               4.000000                     x2             des2 slack
LP status(1): optimal
Cplex Time: 0.00sec (det. 0.00 ticks)

Optimal solution found.
Objective :           4.000000

--- Restarting execution
--- proyecto.gms(29) 2 Mb
--- Reading solution for model ejemplo1
--- Executing after solve: elapsed 0:00:00.105
--- proyecto.gms(31) 3 Mb
*** Status: Normal completion
--- Job proyecto.gms Stop 05/07/19 20:03:07 elapsed 0:00:00.110
